p cnf 225 1
225 0
w 1 0.602703
w 2 1 0
w 2 -1 1
w 3 2 0
w 3 -2 1
w 4 3 0
w 4 -3 1
w 5 4 0.894079
w 5 -4 0.377827
w 6 5 0.722654
w 6 -5 0.13397
w 7 6 0.70736
w 7 -6 0.516529
w 8 7 0.826849
w 8 -7 0.297419
w 9 8 0
w 9 -8 1
w 10 9 0.958479
w 10 -9 0.59995
w 11 10 0.982761
w 11 -10 0.242039
w 12 11 0.492832
w 12 -11 0.141146
w 13 12 1
w 13 -12 0
w 14 13 1
w 14 -13 0
w 15 14 0
w 15 -14 1
w 16 1 0.766959
w 16 -1 0.557647
w 17 16 2 0.144786
w 17 16 -2 0.511489
w 17 -16 2 0.38762
w 17 -16 -2 0.278756
w 18 17 3 0
w 18 17 -3 1
w 18 -17 3 1
w 18 -17 -3 0
w 19 18 4 0
w 19 18 -4 1
w 19 -18 4 1
w 19 -18 -4 1
w 20 19 5 0.487622
w 20 19 -5 0.0234045
w 20 -19 5 0.839582
w 20 -19 -5 0.369417
w 21 20 6 0.980728
w 21 20 -6 0.793303
w 21 -20 6 0.611771
w 21 -20 -6 0.27961
w 22 21 7 1
w 22 21 -7 1
w 22 -21 7 0
w 22 -21 -7 0
w 23 22 8 0.756944
w 23 22 -8 0.89603
w 23 -22 8 0.256939
w 23 -22 -8 0.144564
w 24 23 9 0
w 24 23 -9 0
w 24 -23 9 1
w 24 -23 -9 1
w 25 24 10 0
w 25 24 -10 1
w 25 -24 10 0
w 25 -24 -10 1
w 26 25 11 0.756506
w 26 25 -11 0.35075
w 26 -25 11 0.691238
w 26 -25 -11 0.596088
w 27 26 12 0.207474
w 27 26 -12 0.576816
w 27 -26 12 0.51347
w 27 -26 -12 0.819245
w 28 27 13 0.834562
w 28 27 -13 0.803529
w 28 -27 13 0.0442277
w 28 -27 -13 0.926541
w 29 28 14 0.789677
w 29 28 -14 0.683486
w 29 -28 14 0.450803
w 29 -28 -14 0.0466163
w 30 29 15 0.625588
w 30 29 -15 0.604403
w 30 -29 15 0.0675934
w 30 -29 -15 0.595658
w 31 16 0
w 31 -16 1
w 32 31 17 0.776619
w 32 31 -17 0.387928
w 32 -31 17 0.521559
w 32 -31 -17 0.444452
w 33 32 18 0
w 33 32 -18 0
w 33 -32 18 1
w 33 -32 -18 1
w 34 33 19 1
w 34 33 -19 1
w 34 -33 19 0
w 34 -33 -19 0
w 35 34 20 0.965938
w 35 34 -20 0.217991
w 35 -34 20 0.86705
w 35 -34 -20 0.520711
w 36 35 21 0
w 36 35 -21 1
w 36 -35 21 1
w 36 -35 -21 1
w 37 36 22 0.658687
w 37 36 -22 0.446179
w 37 -36 22 0.192759
w 37 -36 -22 0.808116
w 38 37 23 0.85119
w 38 37 -23 0.584736
w 38 -37 23 0.0630726
w 38 -37 -23 0.372749
w 39 38 24 1
w 39 38 -24 0
w 39 -38 24 0
w 39 -38 -24 0
w 40 39 25 0.508042
w 40 39 -25 0.265368
w 40 -39 25 0.943482
w 40 -39 -25 0.670451
w 41 40 26 0
w 41 40 -26 1
w 41 -40 26 0
w 41 -40 -26 0
w 42 41 27 1
w 42 41 -27 0
w 42 -41 27 0
w 42 -41 -27 0
w 43 42 28 0.725714
w 43 42 -28 0.377762
w 43 -42 28 0.126342
w 43 -42 -28 0.918473
w 44 43 29 1
w 44 43 -29 1
w 44 -43 29 0
w 44 -43 -29 1
w 45 44 30 0
w 45 44 -30 0
w 45 -44 30 1
w 45 -44 -30 0
w 46 31 1
w 46 -31 0
w 47 46 32 0
w 47 46 -32 1
w 47 -46 32 0
w 47 -46 -32 0
w 48 47 33 1
w 48 47 -33 0
w 48 -47 33 1
w 48 -47 -33 0
w 49 48 34 0
w 49 48 -34 0
w 49 -48 34 1
w 49 -48 -34 1
w 50 49 35 0.143341
w 50 49 -35 0.9116
w 50 -49 35 0.70946
w 50 -49 -35 0.329219
w 51 50 36 0.479124
w 51 50 -36 0.0998327
w 51 -50 36 0.577644
w 51 -50 -36 0.621536
w 52 51 37 0.64971
w 52 51 -37 0.00900809
w 52 -51 37 0.864314
w 52 -51 -37 0.669805
w 53 52 38 1
w 53 52 -38 1
w 53 -52 38 0
w 53 -52 -38 1
w 54 53 39 0.454983
w 54 53 -39 0.259769
w 54 -53 39 0.0615772
w 54 -53 -39 0.258503
w 55 54 40 1
w 55 54 -40 1
w 55 -54 40 0
w 55 -54 -40 0
w 56 55 41 0
w 56 55 -41 1
w 56 -55 41 0
w 56 -55 -41 1
w 57 56 42 0
w 57 56 -42 0
w 57 -56 42 1
w 57 -56 -42 0
w 58 57 43 0.345689
w 58 57 -43 0.000896222
w 58 -57 43 0.871817
w 58 -57 -43 0.210003
w 59 58 44 0.105833
w 59 58 -44 0.547038
w 59 -58 44 0.625969
w 59 -58 -44 0.508337
w 60 59 45 0
w 60 59 -45 0
w 60 -59 45 1
w 60 -59 -45 1
w 61 46 1
w 61 -46 0
w 62 61 47 1
w 62 61 -47 1
w 62 -61 47 1
w 62 -61 -47 0
w 63 62 48 0.366156
w 63 62 -48 0.794734
w 63 -62 48 0.559984
w 63 -62 -48 0.712378
w 64 63 49 0.801257
w 64 63 -49 0.158432
w 64 -63 49 0.919462
w 64 -63 -49 0.664067
w 65 64 50 0.920358
w 65 64 -50 0.535884
w 65 -64 50 0.714124
w 65 -64 -50 0.59106
w 66 65 51 0.261163
w 66 65 -51 0.217029
w 66 -65 51 0.150054
w 66 -65 -51 0.288409
w 67 66 52 0.113374
w 67 66 -52 0.575424
w 67 -66 52 0.890268
w 67 -66 -52 0.335197
w 68 67 53 1
w 68 67 -53 1
w 68 -67 53 0
w 68 -67 -53 0
w 69 68 54 0.601849
w 69 68 -54 0.0810672
w 69 -68 54 0.449629
w 69 -68 -54 0.161833
w 70 69 55 0.0179053
w 70 69 -55 0.96309
w 70 -69 55 0.951877
w 70 -69 -55 0.937368
w 71 70 56 0.455999
w 71 70 -56 0.857726
w 71 -70 56 0.163041
w 71 -70 -56 0.170123
w 72 71 57 1
w 72 71 -57 1
w 72 -71 57 1
w 72 -71 -57 0
w 73 72 58 1
w 73 72 -58 1
w 73 -72 58 0
w 73 -72 -58 1
w 74 73 59 1
w 74 73 -59 0
w 74 -73 59 1
w 74 -73 -59 0
w 75 74 60 0.75985
w 75 74 -60 0.240682
w 75 -74 60 0.428524
w 75 -74 -60 0.921683
w 76 61 0
w 76 -61 1
w 77 76 62 0.986004
w 77 76 -62 0.383797
w 77 -76 62 0.511931
w 77 -76 -62 0.442003
w 78 77 63 1
w 78 77 -63 0
w 78 -77 63 1
w 78 -77 -63 1
w 79 78 64 0
w 79 78 -64 0
w 79 -78 64 0
w 79 -78 -64 1
w 80 79 65 0.0582255
w 80 79 -65 0.623743
w 80 -79 65 0.906108
w 80 -79 -65 0.412213
w 81 80 66 0
w 81 80 -66 0
w 81 -80 66 1
w 81 -80 -66 1
w 82 81 67 0
w 82 81 -67 0
w 82 -81 67 0
w 82 -81 -67 1
w 83 82 68 1
w 83 82 -68 0
w 83 -82 68 0
w 83 -82 -68 0
w 84 83 69 0.709277
w 84 83 -69 0.323425
w 84 -83 69 0.543
w 84 -83 -69 0.399586
w 85 84 70 0.586411
w 85 84 -70 0.75571
w 85 -84 70 0.237696
w 85 -84 -70 0.349517
w 86 85 71 0
w 86 85 -71 1
w 86 -85 71 1
w 86 -85 -71 0
w 87 86 72 0.992697
w 87 86 -72 0.876638
w 87 -86 72 0.39017
w 87 -86 -72 0.220757
w 88 87 73 0
w 88 87 -73 1
w 88 -87 73 1
w 88 -87 -73 0
w 89 88 74 0
w 89 88 -74 0
w 89 -88 74 1
w 89 -88 -74 0
w 90 89 75 0.612112
w 90 89 -75 0.984154
w 90 -89 75 0.0803809
w 90 -89 -75 0.155111
w 91 76 1
w 91 -76 0
w 92 91 77 0.13945
w 92 91 -77 0.121231
w 92 -91 77 0.0910397
w 92 -91 -77 0.439959
w 93 92 78 0.498783
w 93 92 -78 0.364211
w 93 -92 78 0.508184
w 93 -92 -78 0.318738
w 94 93 79 1
w 94 93 -79 0
w 94 -93 79 1
w 94 -93 -79 0
w 95 94 80 0
w 95 94 -80 0
w 95 -94 80 1
w 95 -94 -80 1
w 96 95 81 1
w 96 95 -81 0
w 96 -95 81 0
w 96 -95 -81 1
w 97 96 82 0.259785
w 97 96 -82 0.346964
w 97 -96 82 0.90799
w 97 -96 -82 0.643526
w 98 97 83 1
w 98 97 -83 1
w 98 -97 83 0
w 98 -97 -83 1
w 99 98 84 0
w 99 98 -84 1
w 99 -98 84 0
w 99 -98 -84 1
w 100 99 85 0.944053
w 100 99 -85 0.106389
w 100 -99 85 0.26698
w 100 -99 -85 0.521718
w 101 100 86 0.696122
w 101 100 -86 0.788881
w 101 -100 86 0.770481
w 101 -100 -86 0.097246
w 102 101 87 0
w 102 101 -87 1
w 102 -101 87 1
w 102 -101 -87 0
w 103 102 88 0.142055
w 103 102 -88 0.306651
w 103 -102 88 0.22042
w 103 -102 -88 0.050045
w 104 103 89 0.45092
w 104 103 -89 0.699557
w 104 -103 89 0.733152
w 104 -103 -89 0.80265
w 105 104 90 0
w 105 104 -90 1
w 105 -104 90 0
w 105 -104 -90 0
w 106 91 1
w 106 -91 0
w 107 106 92 0.504495
w 107 106 -92 0.00900365
w 107 -106 92 0.420843
w 107 -106 -92 0.200618
w 108 107 93 0.191324
w 108 107 -93 0.297864
w 108 -107 93 0.0462955
w 108 -107 -93 0.962558
w 109 108 94 0.435473
w 109 108 -94 0.00942361
w 109 -108 94 0.778193
w 109 -108 -94 0.577528
w 110 109 95 0
w 110 109 -95 1
w 110 -109 95 0
w 110 -109 -95 0
w 111 110 96 1
w 111 110 -96 0
w 111 -110 96 0
w 111 -110 -96 1
w 112 111 97 1
w 112 111 -97 1
w 112 -111 97 0
w 112 -111 -97 0
w 113 112 98 0.849812
w 113 112 -98 0.18869
w 113 -112 98 0.99501
w 113 -112 -98 0.270656
w 114 113 99 0
w 114 113 -99 0
w 114 -113 99 0
w 114 -113 -99 1
w 115 114 100 0
w 115 114 -100 0
w 115 -114 100 1
w 115 -114 -100 0
w 116 115 101 0.750036
w 116 115 -101 0.368714
w 116 -115 101 0.479764
w 116 -115 -101 0.0162865
w 117 116 102 0.806894
w 117 116 -102 0.0156888
w 117 -116 102 0.0704303
w 117 -116 -102 0.574133
w 118 117 103 0.338648
w 118 117 -103 0.0208132
w 118 -117 103 0.469898
w 118 -117 -103 0.344469
w 119 118 104 0.455905
w 119 118 -104 0.194281
w 119 -118 104 0.893699
w 119 -118 -104 0.450914
w 120 119 105 1
w 120 119 -105 1
w 120 -119 105 0
w 120 -119 -105 1
w 121 106 1
w 121 -106 0
w 122 121 107 0
w 122 121 -107 1
w 122 -121 107 0
w 122 -121 -107 0
w 123 122 108 1
w 123 122 -108 0
w 123 -122 108 1
w 123 -122 -108 1
w 124 123 109 0.189579
w 124 123 -109 0.0706451
w 124 -123 109 0.538606
w 124 -123 -109 0.528227
w 125 124 110 1
w 125 124 -110 0
w 125 -124 110 1
w 125 -124 -110 1
w 126 125 111 0
w 126 125 -111 0
w 126 -125 111 0
w 126 -125 -111 1
w 127 126 112 1
w 127 126 -112 0
w 127 -126 112 1
w 127 -126 -112 0
w 128 127 113 0.599795
w 128 127 -113 0.595704
w 128 -127 113 0.437625
w 128 -127 -113 0.809648
w 129 128 114 1
w 129 128 -114 0
w 129 -128 114 1
w 129 -128 -114 0
w 130 129 115 0.250326
w 130 129 -115 0.0472549
w 130 -129 115 0.0664242
w 130 -129 -115 0.788932
w 131 130 116 0.157883
w 131 130 -116 0.797437
w 131 -130 116 0.448179
w 131 -130 -116 0.954349
w 132 131 117 1
w 132 131 -117 0
w 132 -131 117 1
w 132 -131 -117 1
w 133 132 118 0.336302
w 133 132 -118 0.505902
w 133 -132 118 0.561039
w 133 -132 -118 0.578434
w 134 133 119 1
w 134 133 -119 0
w 134 -133 119 1
w 134 -133 -119 1
w 135 134 120 0.0430512
w 135 134 -120 0.24263
w 135 -134 120 0.487144
w 135 -134 -120 0.725949
w 136 121 0
w 136 -121 1
w 137 136 122 0.147561
w 137 136 -122 0.549347
w 137 -136 122 0.765207
w 137 -136 -122 0.723043
w 138 137 123 0.562643
w 138 137 -123 0.171221
w 138 -137 123 0.661579
w 138 -137 -123 0.824489
w 139 138 124 0.306094
w 139 138 -124 0.00165858
w 139 -138 124 0.733448
w 139 -138 -124 0.923782
w 140 139 125 0
w 140 139 -125 1
w 140 -139 125 0
w 140 -139 -125 1
w 141 140 126 0.0946231
w 141 140 -126 0.467434
w 141 -140 126 0.0554015
w 141 -140 -126 0.0825001
w 142 141 127 0.298032
w 142 141 -127 0.569644
w 142 -141 127 0.236434
w 142 -141 -127 0.398337
w 143 142 128 0
w 143 142 -128 1
w 143 -142 128 0
w 143 -142 -128 0
w 144 143 129 1
w 144 143 -129 1
w 144 -143 129 1
w 144 -143 -129 0
w 145 144 130 0
w 145 144 -130 0
w 145 -144 130 0
w 145 -144 -130 1
w 146 145 131 0.0993392
w 146 145 -131 0.685419
w 146 -145 131 0.621061
w 146 -145 -131 0.654879
w 147 146 132 0
w 147 146 -132 1
w 147 -146 132 0
w 147 -146 -132 1
w 148 147 133 0.590151
w 148 147 -133 0.367828
w 148 -147 133 0.869232
w 148 -147 -133 0.988488
w 149 148 134 0
w 149 148 -134 0
w 149 -148 134 1
w 149 -148 -134 1
w 150 149 135 0.33145
w 150 149 -135 0.600414
w 150 -149 135 0.243489
w 150 -149 -135 0.302172
w 151 136 0.370029
w 151 -136 0.578987
w 152 151 137 0
w 152 151 -137 1
w 152 -151 137 0
w 152 -151 -137 1
w 153 152 138 0
w 153 152 -138 1
w 153 -152 138 1
w 153 -152 -138 1
w 154 153 139 1
w 154 153 -139 0
w 154 -153 139 0
w 154 -153 -139 0
w 155 154 140 0.608581
w 155 154 -140 0.57248
w 155 -154 140 0.959988
w 155 -154 -140 0.690521
w 156 155 141 0
w 156 155 -141 1
w 156 -155 141 1
w 156 -155 -141 1
w 157 156 142 0
w 157 156 -142 1
w 157 -156 142 0
w 157 -156 -142 0
w 158 157 143 0
w 158 157 -143 1
w 158 -157 143 0
w 158 -157 -143 0
w 159 158 144 0
w 159 158 -144 0
w 159 -158 144 1
w 159 -158 -144 1
w 160 159 145 0.173873
w 160 159 -145 0.135057
w 160 -159 145 0.888497
w 160 -159 -145 0.913221
w 161 160 146 0.42809
w 161 160 -146 0.521802
w 161 -160 146 0.291529
w 161 -160 -146 0.388078
w 162 161 147 0
w 162 161 -147 1
w 162 -161 147 1
w 162 -161 -147 0
w 163 162 148 0.313491
w 163 162 -148 0.462271
w 163 -162 148 0.300037
w 163 -162 -148 0.629743
w 164 163 149 0.494943
w 164 163 -149 0.278164
w 164 -163 149 0.739713
w 164 -163 -149 0.469433
w 165 164 150 0.8228
w 165 164 -150 0.908927
w 165 -164 150 0.306571
w 165 -164 -150 0.890123
w 166 151 1
w 166 -151 0
w 167 166 152 1
w 167 166 -152 0
w 167 -166 152 0
w 167 -166 -152 0
w 168 167 153 1
w 168 167 -153 1
w 168 -167 153 0
w 168 -167 -153 1
w 169 168 154 0.0983402
w 169 168 -154 0.674042
w 169 -168 154 0.902763
w 169 -168 -154 0.78246
w 170 169 155 0.365034
w 170 169 -155 0.0824969
w 170 -169 155 0.617276
w 170 -169 -155 0.351017
w 171 170 156 0.89544
w 171 170 -156 0.0907307
w 171 -170 156 0.0468727
w 171 -170 -156 0.858859
w 172 171 157 0.9558
w 172 171 -157 0.16543
w 172 -171 157 0.803653
w 172 -171 -157 0.00594342
w 173 172 158 1
w 173 172 -158 0
w 173 -172 158 0
w 173 -172 -158 1
w 174 173 159 0
w 174 173 -159 1
w 174 -173 159 1
w 174 -173 -159 1
w 175 174 160 1
w 175 174 -160 0
w 175 -174 160 0
w 175 -174 -160 0
w 176 175 161 1
w 176 175 -161 0
w 176 -175 161 0
w 176 -175 -161 0
w 177 176 162 0.229516
w 177 176 -162 0.59489
w 177 -176 162 0.755997
w 177 -176 -162 0.0883755
w 178 177 163 0.711797
w 178 177 -163 0.253805
w 178 -177 163 0.312075
w 178 -177 -163 0.71774
w 179 178 164 1
w 179 178 -164 0
w 179 -178 164 1
w 179 -178 -164 0
w 180 179 165 0
w 180 179 -165 1
w 180 -179 165 0
w 180 -179 -165 1
w 181 166 1
w 181 -166 0
w 182 181 167 1
w 182 181 -167 0
w 182 -181 167 1
w 182 -181 -167 0
w 183 182 168 0
w 183 182 -168 0
w 183 -182 168 0
w 183 -182 -168 1
w 184 183 169 1
w 184 183 -169 1
w 184 -183 169 0
w 184 -183 -169 0
w 185 184 170 0.775541
w 185 184 -170 0.0415925
w 185 -184 170 0.494136
w 185 -184 -170 0.218079
w 186 185 171 0
w 186 185 -171 0
w 186 -185 171 1
w 186 -185 -171 1
w 187 186 172 0.614379
w 187 186 -172 0.702747
w 187 -186 172 0.896516
w 187 -186 -172 0.0380778
w 188 187 173 0.315122
w 188 187 -173 0.191045
w 188 -187 173 0.852447
w 188 -187 -173 0.782915
w 189 188 174 1
w 189 188 -174 0
w 189 -188 174 0
w 189 -188 -174 1
w 190 189 175 0.698016
w 190 189 -175 0.821797
w 190 -189 175 0.755593
w 190 -189 -175 0.219751
w 191 190 176 0.531988
w 191 190 -176 0.995292
w 191 -190 176 0.592907
w 191 -190 -176 0.0261242
w 192 191 177 1
w 192 191 -177 0
w 192 -191 177 1
w 192 -191 -177 1
w 193 192 178 0.719156
w 193 192 -178 0.674507
w 193 -192 178 0.539189
w 193 -192 -178 0.615672
w 194 193 179 0.422732
w 194 193 -179 0.930794
w 194 -193 179 0.90363
w 194 -193 -179 0.275179
w 195 194 180 0.964442
w 195 194 -180 0.249672
w 195 -194 180 0.0961016
w 195 -194 -180 0.229097
w 196 181 0.787096
w 196 -181 0.927113
w 197 196 182 0.542689
w 197 196 -182 0.146864
w 197 -196 182 0.223484
w 197 -196 -182 0.0746775
w 198 197 183 0
w 198 197 -183 1
w 198 -197 183 1
w 198 -197 -183 0
w 199 198 184 0.330045
w 199 198 -184 0.690744
w 199 -198 184 0.366387
w 199 -198 -184 0.0492009
w 200 199 185 0
w 200 199 -185 1
w 200 -199 185 1
w 200 -199 -185 0
w 201 200 186 0.981466
w 201 200 -186 0.603486
w 201 -200 186 0.309376
w 201 -200 -186 0.945908
w 202 201 187 0.405478
w 202 201 -187 0.175005
w 202 -201 187 0.703531
w 202 -201 -187 0.192574
w 203 202 188 1
w 203 202 -188 0
w 203 -202 188 0
w 203 -202 -188 1
w 204 203 189 0.391138
w 204 203 -189 0.415575
w 204 -203 189 0.910742
w 204 -203 -189 0.746664
w 205 204 190 1
w 205 204 -190 0
w 205 -204 190 1
w 205 -204 -190 0
w 206 205 191 0
w 206 205 -191 0
w 206 -205 191 1
w 206 -205 -191 1
w 207 206 192 1
w 207 206 -192 1
w 207 -206 192 1
w 207 -206 -192 0
w 208 207 193 0
w 208 207 -193 1
w 208 -207 193 1
w 208 -207 -193 0
w 209 208 194 1
w 209 208 -194 1
w 209 -208 194 1
w 209 -208 -194 0
w 210 209 195 0.0246394
w 210 209 -195 0.591591
w 210 -209 195 0.749823
w 210 -209 -195 0.771304
w 211 196 0.19051
w 211 -196 0.848013
w 212 211 197 0
w 212 211 -197 0
w 212 -211 197 0
w 212 -211 -197 1
w 213 212 198 0.751194
w 213 212 -198 0.151155
w 213 -212 198 0.818407
w 213 -212 -198 0.395639
w 214 213 199 0.925802
w 214 213 -199 0.893241
w 214 -213 199 0.948286
w 214 -213 -199 0.208203
w 215 214 200 1
w 215 214 -200 1
w 215 -214 200 0
w 215 -214 -200 1
w 216 215 201 0.110385
w 216 215 -201 0.250862
w 216 -215 201 0.438816
w 216 -215 -201 0.860208
w 217 216 202 0
w 217 216 -202 1
w 217 -216 202 1
w 217 -216 -202 0
w 218 217 203 1
w 218 217 -203 0
w 218 -217 203 0
w 218 -217 -203 0
w 219 218 204 0.509734
w 219 218 -204 0.759962
w 219 -218 204 0.403539
w 219 -218 -204 0.905372
w 220 219 205 0.329341
w 220 219 -205 0.798614
w 220 -219 205 0.555229
w 220 -219 -205 0.537543
w 221 220 206 0.797393
w 221 220 -206 0.130265
w 221 -220 206 0.564196
w 221 -220 -206 0.0686966
w 222 221 207 0
w 222 221 -207 0
w 222 -221 207 0
w 222 -221 -207 1
w 223 222 208 1
w 223 222 -208 1
w 223 -222 208 1
w 223 -222 -208 0
w 224 223 209 1
w 224 223 -209 1
w 224 -223 209 1
w 224 -223 -209 0
w 225 224 210 0.406583
w 225 224 -210 0.712563
w 225 -224 210 0.295026
w 225 -224 -210 0.311955